num_offers = 20;
num_halls = 10;
start=[65,74,57,42,24,21,37,25,48,12,28,65,31,62,29,15,24,20,9,26];
end=[75,84,82,51,40,47,66,100,75,85,88,90,92,87,36,67,95,23,80,74];
price=[153,300,670,607,273,2510,1080,3629,2430,4259,4266,1400,791,1622,80,4786,2423,370,1587,2086];
requirement=[803,528,883,320,414,527,737,951,547,241,268,321,980,203,486,813,840,214,484,757];
capacity=[754,914,998,692,838,721,919,925,428,974];
